25
2 1 4
4 3 2
5 1 3
6 2 2
6 4 4
6 5 4
7 0 2
7 1 2
7 2 1
7 3 3
7 6 3
8 0 5
8 1 2
8 2 2
8 3 1
8 4 4
8 5 4
8 6 2
8 7 4
9 1 1
9 3 5
9 8 1
10 1 2
10 3 1
10 4 2
10 5 2
10 6 4
10 9 2
11 0 2
11 1 3
11 4 2
11 5 1
11 6 5
11 9 4
11 10 5
12 0 3
12 1 5
12 2 2
12 3 2
12 4 2
12 5 5
12 9 4
13 1 3
13 4 1
13 7 4
13 8 4
13 9 1
13 10 1
14 0 3
14 3 3
14 4 4
14 9 3
14 10 1
14 11 4
14 13 1
15 3 2
15 5 4
15 8 1
15 9 2
15 11 4
16 0 1
16 2 1
16 3 4
16 4 5
16 5 2
16 6 1
16 11 2
16 12 4
16 13 1
16 15 4
17 1 2
17 2 5
17 5 2
17 6 3
17 7 1
17 9 4
17 12 4
17 13 2
17 15 2
18 0 4
18 1 1
18 4 5
18 6 2
18 10 5
18 11 2
18 12 4
18 16 4
18 17 1
19 1 3
19 4 5
19 6 1
19 11 3
19 16 3
19 17 1
19 18 2
20 1 4
20 2 5
20 4 1
20 8 1
20 10 5
20 11 2
20 13 2
20 16 3
20 17 3
20 19 1
21 0 1
21 1 2
21 2 1
21 3 3
21 4 4
21 6 2
21 9 3
21 11 3
21 12 5
21 14 3
21 15 2
21 18 3
21 20 1
22 4 4
22 6 2
22 8 3
22 10 3
22 15 4
22 18 1
22 19 3
22 21 1
23 2 2
23 3 5
23 4 5
23 7 4
23 8 5
23 10 3
23 11 1
23 12 1
23 13 2
23 17 1
23 20 2
23 22 2
24 1 3
24 2 5
24 3 2
24 5 5
24 6 3
24 8 5
24 9 5
24 11 4
24 15 5
24 17 4
24 20 5
24 22 1
24 23 5
